(declare-fun v6 () Bool)
(declare-fun v16 () Bool)
(get-qe (exists ((q154 Bool)                                                                      ) (and                                                                                (exists (                       (q156 Bool)                         (q159 Bool)           )     (xor q156                 q159                        q159           )                      )     (distinct v16 v6 q154  )   )))
